100
237 104 397 155 67 402 918 801 766 222 537 277 173 107 215 928 829 807 801 194 310 627 732 855 881 87 606 672 506 178 474 90 935 866 548 301 909 573 883 849 509 414 599 432 162 306 813 44 47 627 281 535 472 343 998 196 413 203 633 277 356 747 321 559 905 101 62 229 766 616 238 332 178 460 43 698 896 955 735 960 19 289 967 776 411 944 621 818 294 192 445 137 382 962 332 10 45 170 784 363 
337 204 497 255 167 502 1018 901 866 322 637 377 273 207 315 1028 929 907 901 294 410 727 832 955 981 187 706 772 606 278 574 190 1035 966 648 401 1009 673 983 949 609 514 699 532 262 406 913 144 147 727 381 635 572 443 1098 296 513 303 733 377 456 847 421 659 1005 201 162 329 866 716 338 432 278 560 143 798 996 1055 835 1060 119 389 1067 876 511 1044 721 918 394 292 545 237 482 1062 432 110 145 270 884 463 
23881
